problem_generation/data/GISP/train/er_n=63_m=1192_p=0.60_SET2_setparam=100.00_alpha=0.50_892.lp
maximize
OBJ:100x0 + 100x1 + 100x2 + 100x3 + 100x4 + 100x5 + 100x6 + 100x7 + 100x8 + 100x9 + 100x10 + 100x11 + 100x12 + 100x13 + 100x14 + 100x15 + 100x16 + 100x17 + 100x18 + 100x19 + 100x20 + 100x21 + 100x22 + 100x23 + 100x24 + 100x25 + 100x26 + 100x27 + 100x28 + 100x29 + 100x30 + 100x31 + 100x32 + 100x33 + 100x34 + 100x35 + 100x36 + 100x37 + 100x38 + 100x39 + 100x40 + 100x41 + 100x42 + 100x43 + 100x44 + 100x45 + 100x46 + 100x47 + 100x48 + 100x49 + 100x50 + 100x51 + 100x52 + 100x53 + 100x54 + 100x55 + 100x56 + 100x57 + 100x58 + 100x59 + 100x60 + 100x61 + 100x62 - y55_57 - y47_53 - y26_30 - y26_39 - y18_35 - y0_14 - y29_59 - y33_38 - y41_51 - y2_32 - y25_34 - y10_45 - y33_56 - y44_56 - y2_50 - y22_28 - y25_61 - y14_33 - y14_51 - y15_16 - y47_48 - y7_21 - y28_53 - y5_60 - y9_58 - y29_36 - y6_61 - y21_59 - y10_31 - y25_29 - y44_51 - y2_45 - y25_47 - y13_51 - y35_60 - y36_43 - y36_61 - y17_57 - y9_62 - y29_49 - y10_17 - y2_31 - y51_54 - y2_49 - y22_27 - y35_46 - y3_23 - y14_23 - y43_59 - y35_55 - y14_32 - y16_51 - y17_34 - y55_60 - y5_41 - y9_39 - y28_52 - y9_48 - y50_58 - y29_35 - y29_44 - y21_40 - y6_51 - y10_12 - y39_48 - y2_8 - y10_21 - y39_57 - y54_55 - y2_26 - y20_62 - y10_39 - y12_58 - y31_62 - y3_9 - y13_41 - y35_41 - y3_18 - y32_54 - y1_48 - y5_27 - y5_36 - y36_51 - y47_51 - y28_47 - y6_10 - y9_43 - y5_54 - y28_56 - y9_52 - y6_28 - y21_26 - y61_62 - y6_37 - y21_35 - y20_39 - y39_52 - y31_48 - y39_61 - y12_44 - y4_49 - y23_62 - y13_27 - y3_4 - y32_40 - y13_36 - y24_36 - y16_32 - y1_43 - y1_52 - y35_54 - y16_50 - y16_59 - y5_22 - y17_24 - y46_60 - y9_20 - y57_60 - y17_33 - y17_42 - y9_38 - y5_49 - y6_23 - y6_32 - y42_53 - y21_30 - y42_62 - y0_56 - y20_43 - y23_39 - y20_52 - y23_48 - y4_44 - y13_22 - y4_53 - y24_31 - y16_27 - y24_40 - y43_53 - y16_36 - y1_47 - y24_49 - y5_8 - y38_51 - y17_28 - y17_37 - y28_37 - y6_18 - y27_50 - y19_46 - y27_59 - y20_29 - y39_42 - y12_25 - y23_25 - y20_38 - y39_51 - y2_11 - y20_47 - y23_52 - y13_17 - y16_22 - y13_44 - y35_44 - y16_49 - y9_10 - y9_19 - y26_53 - y7_58 - y27_36 - y6_13 - y8_32 - y8_41 - y30_41 - y27_54 - y42_43 - y30_50 - y42_52 - y11_46 - y30_59 - y20_24 - y20_33 - y12_47 - y4_43 - y1_19 - y13_21 - y1_28 - y13_30 - y16_26 - y16_35 - y1_46 - y15_57 - y26_57 - y38_59 - y7_53 - y27_31 - y7_62 - y19_36 - y50_51 - y42_47 - y11_41 - y30_54 - y0_50 - y12_15 - y20_28 - y12_24 - y23_33 - y4_29 - y23_42 - y4_38 - y1_14 - y1_23 - y37_44 - y15_34 - y46_49 - y38_45 - y18_39 - y15_52 - y26_52 - y49_54 - y7_48 - y15_61 - y7_57 - y8_22 - y19_31 - y19_40 - y0_36 - y11_45 - y30_58 - y20_23 - y11_54 - y41_55 - y52_55 - y31_32 - y4_15 - y33_51 - y23_28 - y4_24 - y33_60 - y34_43 - y53_56 - y14_46 - y37_48 - y45_61 - y56_61 - y38_40 - y7_34 - y18_52 - y27_39 - y8_44 - y12_14 - y41_50 - y33_46 - y44_46 - y10_53 - y33_55 - y2_58 - y3_50 - y3_59 - y15_33 - y18_29 - y15_42 - y26_42 - y26_51 - y7_47 - y18_47 - y8_21 - y29_53 - y40_53 - y8_30 - y29_62 - y40_62 - y33_41 - y41_54 - y4_14 - y33_50 - y33_59 - y2_53 - y22_31 - y2_62 - y34_42 - y34_51 - y14_54 - y37_56 - y26_28 - y18_42 - y8_16 - y6_55 - y21_62 - y10_34 - y41_49 - y25_32 - y4_9 - y44_45 - y25_41 - y44_54 - y2_48 - y10_61 - y25_59 - y3_22 - y22_35 - y34_37 - y14_31 - y22_44 - y3_40 - y3_49 - y14_49 - y26_32 - y17_51 - y17_60 - y29_34 - y48_56 - y0_16 - y40_52 - y21_48 - y40_61 - y10_29 - y2_25 - y25_27 - y33_40 - y2_34 - y10_47 - y33_49 - y25_45 - y3_8 - y10_56 - y14_17 - y22_30 - y2_61 - y32_62 - y14_44 - y7_14 - y36_50 - y28_46 - y9_60 - y6_54 - y29_56 - y10_24 - y54_58 - y33_35 - y2_29 - y2_38 - y2_47 - y32_48 - y2_56 - y3_21 - y32_57 - y43_57 - y35_53 - y16_58 - y55_58 - y17_50 - y28_50 - y6_31 - y6_49 - y10_19 - y20_60 - y2_33 - y25_35 - y35_39 - y3_16 - y24_48 - y16_44 - y1_55 - y35_57 - y17_27 - y17_36 - y17_45 - y6_8 - y47_58 - y5_52 - y10_14 - y39_50 - y20_46 - y31_46 - y31_55 - y54_57 - y12_51 - y2_28 - y12_60 - y24_34 - y43_47 - y24_43 - y35_43 - y43_56 - y16_39 - y24_52 - y1_59 - y24_61 - y5_20 - y17_31 - y36_44 - y17_40 - y28_40 - y17_49 - y9_45 - y6_21 - y6_30 - y42_51 - y27_62 - y19_58 - y31_41 - y39_54 - y31_50 - y54_61 - y13_29 - y32_42 - y16_34 - y1_45 - y46_62 - y49_58 - y5_33 - y17_35 - y6_7 - y5_51 - y42_46 - y27_57 - y50_59 - y8_53 - y30_62 - y20_36 - y39_49 - y23_32 - y31_45 - y4_37 - y23_50 - y4_46 - y13_33 - y35_51 - y16_47 - y5_10 - y5_19 - y46_57 - y9_17 - y49_53 - y17_30 - y9_26 - y9_35 - y6_11 - y8_39 - y30_48 - y27_61 - y0_44 - y11_44 - y8_57 - y20_22 - y30_57 - y0_53 - y11_53 - y39_44 - y31_40 - y4_23 - y31_58 - y1_17 - y1_26 - y13_28 - y56_60 - y13_37 - y16_33 - y1_44 - y18_60 - y30_34 - y27_47 - y8_43 - y19_52 - y30_52 - y12_13 - y8_61 - y19_61 - y20_26 - y12_22 - y4_18 - y23_49 - y13_14 - y1_21 - y4_54 - y1_39 - y3_58 - y14_58 - y15_41 - y15_50 - y49_52 - y8_29 - y0_25 - y19_38 - y30_38 - y11_34 - y11_43 - y11_52 - y12_17 - y41_53 - y20_30 - y52_53 - y44_58 - y23_35 - y1_7 - y1_16 - y53_54 - y22_48 - y34_50 - y37_46 - y45_59 - y56_59 - y14_53 - y3_62 - y26_27 - y7_32 - y26_45 - y38_47 - y7_41 - y15_54 - y49_56 - y27_28 - y48_60 - y8_33 - y19_33 - y30_33 - y11_38 - y19_51 - y30_51 - y41_57 - y33_53 - y23_30 - y44_62 - y1_2 - y22_34 - y34_45 - y53_58 - y22_52 - y34_54 - y3_48 - y14_48 - y22_61 - y37_50 - y26_31 - y7_27 - y15_40 - y26_49 - y26_58 - y0_6 - y7_54 - y18_54 - y48_55 - y27_32 - y0_15 - y11_15 - y0_24 - y11_24 - y19_37 - y0_42 - y33_39 - y12_16 - y41_52 - y25_44 - y10_55 - y2_60 - y22_38 - y34_40 - y14_34 - y34_49 - y14_43 - y3_52 - y14_52 - y37_54 - y14_61 - y7_22 - y7_31 - y18_31 - y18_40 - y7_49 - y0_10 - y29_46 - y40_46 - y29_55 - y40_55 - y6_62 - y21_60 - y4_7 - y44_52 - y2_46 - y2_55 - y14_20 - y25_57 - y22_33 - y3_29 - y3_38 - y22_51 - y37_49 - y3_56
 Subject to
C1: x0+x1 <=1 
C2: x0+x2 <=1 
C3: x0+x4 <=1 
C4: x0+x6-y0_6 <=1 
C5: x0+x10-y0_10 <=1 
C6: x0+x13 <=1 
C7: x0+x14-y0_14 <=1 
C8: x0+x15-y0_15 <=1 
C9: x0+x16-y0_16 <=1 
C10: x0+x18 <=1 
C11: x0+x21 <=1 
C12: x0+x22 <=1 
C13: x0+x24-y0_24 <=1 
C14: x0+x25-y0_25 <=1 
C15: x0+x26 <=1 
C16: x0+x31 <=1 
C17: x0+x32 <=1 
C18: x0+x35 <=1 
C19: x0+x36-y0_36 <=1 
C20: x0+x37 <=1 
C21: x0+x38 <=1 
C22: x0+x39 <=1 
C23: x0+x42-y0_42 <=1 
C24: x0+x44-y0_44 <=1 
C25: x0+x45 <=1 
C26: x0+x46 <=1 
C27: x0+x47 <=1 
C28: x0+x48 <=1 
C29: x0+x50-y0_50 <=1 
C30: x0+x52 <=1 
C31: x0+x53-y0_53 <=1 
C32: x0+x55 <=1 
C33: x0+x56-y0_56 <=1 
C34: x0+x60 <=1 
C35: x0+x62 <=1 
C36: x1+x2-y1_2 <=1 
C37: x1+x6 <=1 
C38: x1+x7-y1_7 <=1 
C39: x1+x8 <=1 
C40: x1+x10 <=1 
C41: x1+x11 <=1 
C42: x1+x14-y1_14 <=1 
C43: x1+x16-y1_16 <=1 
C44: x1+x17-y1_17 <=1 
C45: x1+x18 <=1 
C46: x1+x19-y1_19 <=1 
C47: x1+x20 <=1 
C48: x1+x21-y1_21 <=1 
C49: x1+x23-y1_23 <=1 
C50: x1+x25 <=1 
C51: x1+x26-y1_26 <=1 
C52: x1+x27 <=1 
C53: x1+x28-y1_28 <=1 
C54: x1+x29 <=1 
C55: x1+x34 <=1 
C56: x1+x39-y1_39 <=1 
C57: x1+x40 <=1 
C58: x1+x41 <=1 
C59: x1+x43-y1_43 <=1 
C60: x1+x44-y1_44 <=1 
C61: x1+x45-y1_45 <=1 
C62: x1+x46-y1_46 <=1 
C63: x1+x47-y1_47 <=1 
C64: x1+x48-y1_48 <=1 
C65: x1+x50 <=1 
C66: x1+x52-y1_52 <=1 
C67: x1+x55-y1_55 <=1 
C68: x1+x57 <=1 
C69: x1+x58 <=1 
C70: x1+x59-y1_59 <=1 
C71: x2+x5 <=1 
C72: x2+x8-y2_8 <=1 
C73: x2+x9 <=1 
C74: x2+x11-y2_11 <=1 
C75: x2+x18 <=1 
C76: x2+x19 <=1 
C77: x2+x20 <=1 
C78: x2+x22 <=1 
C79: x2+x24 <=1 
C80: x2+x25-y2_25 <=1 
C81: x2+x26-y2_26 <=1 
C82: x2+x27 <=1 
C83: x2+x28-y2_28 <=1 
C84: x2+x29-y2_29 <=1 
C85: x2+x30 <=1 
C86: x2+x31-y2_31 <=1 
C87: x2+x32-y2_32 <=1 
C88: x2+x33-y2_33 <=1 
C89: x2+x34-y2_34 <=1 
C90: x2+x36 <=1 
C91: x2+x38-y2_38 <=1 
C92: x2+x41 <=1 
C93: x2+x45-y2_45 <=1 
C94: x2+x46-y2_46 <=1 
C95: x2+x47-y2_47 <=1 
C96: x2+x48-y2_48 <=1 
C97: x2+x49-y2_49 <=1 
C98: x2+x50-y2_50 <=1 
C99: x2+x53-y2_53 <=1 
C100: x2+x55-y2_55 <=1 
C101: x2+x56-y2_56 <=1 
C102: x2+x58-y2_58 <=1 
C103: x2+x60-y2_60 <=1 
C104: x2+x61-y2_61 <=1 
C105: x2+x62-y2_62 <=1 
C106: x3+x4-y3_4 <=1 
C107: x3+x5 <=1 
C108: x3+x8-y3_8 <=1 
C109: x3+x9-y3_9 <=1 
C110: x3+x10 <=1 
C111: x3+x12 <=1 
C112: x3+x13 <=1 
C113: x3+x16-y3_16 <=1 
C114: x3+x18-y3_18 <=1 
C115: x3+x19 <=1 
C116: x3+x20 <=1 
C117: x3+x21-y3_21 <=1 
C118: x3+x22-y3_22 <=1 
C119: x3+x23-y3_23 <=1 
C120: x3+x27 <=1 
C121: x3+x29-y3_29 <=1 
C122: x3+x30 <=1 
C123: x3+x31 <=1 
C124: x3+x34 <=1 
C125: x3+x37 <=1 
C126: x3+x38-y3_38 <=1 
C127: x3+x39 <=1 
C128: x3+x40-y3_40 <=1 
C129: x3+x43 <=1 
C130: x3+x46 <=1 
C131: x3+x47 <=1 
C132: x3+x48-y3_48 <=1 
C133: x3+x49-y3_49 <=1 
C134: x3+x50-y3_50 <=1 
C135: x3+x52-y3_52 <=1 
C136: x3+x54 <=1 
C137: x3+x55 <=1 
C138: x3+x56-y3_56 <=1 
C139: x3+x57 <=1 
C140: x3+x58-y3_58 <=1 
C141: x3+x59-y3_59 <=1 
C142: x3+x62-y3_62 <=1 
C143: x4+x5 <=1 
C144: x4+x7-y4_7 <=1 
C145: x4+x8 <=1 
C146: x4+x9-y4_9 <=1 
C147: x4+x10 <=1 
C148: x4+x12 <=1 
C149: x4+x13 <=1 
C150: x4+x14-y4_14 <=1 
C151: x4+x15-y4_15 <=1 
C152: x4+x17 <=1 
C153: x4+x18-y4_18 <=1 
C154: x4+x22 <=1 
C155: x4+x23-y4_23 <=1 
C156: x4+x24-y4_24 <=1 
C157: x4+x29-y4_29 <=1 
C158: x4+x32 <=1 
C159: x4+x34 <=1 
C160: x4+x35 <=1 
C161: x4+x36 <=1 
C162: x4+x37-y4_37 <=1 
C163: x4+x38-y4_38 <=1 
C164: x4+x40 <=1 
C165: x4+x42 <=1 
C166: x4+x43-y4_43 <=1 
C167: x4+x44-y4_44 <=1 
C168: x4+x46-y4_46 <=1 
C169: x4+x47 <=1 
C170: x4+x49-y4_49 <=1 
C171: x4+x50 <=1 
C172: x4+x51 <=1 
C173: x4+x52 <=1 
C174: x4+x53-y4_53 <=1 
C175: x4+x54-y4_54 <=1 
C176: x4+x56 <=1 
C177: x4+x60 <=1 
C178: x4+x62 <=1 
C179: x5+x6 <=1 
C180: x5+x8-y5_8 <=1 
C181: x5+x9 <=1 
C182: x5+x10-y5_10 <=1 
C183: x5+x16 <=1 
C184: x5+x19-y5_19 <=1 
C185: x5+x20-y5_20 <=1 
C186: x5+x21 <=1 
C187: x5+x22-y5_22 <=1 
C188: x5+x25 <=1 
C189: x5+x27-y5_27 <=1 
C190: x5+x31 <=1 
C191: x5+x32 <=1 
C192: x5+x33-y5_33 <=1 
C193: x5+x34 <=1 
C194: x5+x35 <=1 
C195: x5+x36-y5_36 <=1 
C196: x5+x37 <=1 
C197: x5+x40 <=1 
C198: x5+x41-y5_41 <=1 
C199: x5+x42 <=1 
C200: x5+x43 <=1 
C201: x5+x45 <=1 
C202: x5+x49-y5_49 <=1 
C203: x5+x51-y5_51 <=1 
C204: x5+x52-y5_52 <=1 
C205: x5+x54-y5_54 <=1 
C206: x5+x57 <=1 
C207: x5+x58 <=1 
C208: x5+x59 <=1 
C209: x5+x60-y5_60 <=1 
C210: x6+x7-y6_7 <=1 
C211: x6+x8-y6_8 <=1 
C212: x6+x10-y6_10 <=1 
C213: x6+x11-y6_11 <=1 
C214: x6+x12 <=1 
C215: x6+x13-y6_13 <=1 
C216: x6+x14 <=1 
C217: x6+x16 <=1 
C218: x6+x17 <=1 
C219: x6+x18-y6_18 <=1 
C220: x6+x19 <=1 
C221: x6+x20 <=1 
C222: x6+x21-y6_21 <=1 
C223: x6+x23-y6_23 <=1 
C224: x6+x25 <=1 
C225: x6+x28-y6_28 <=1 
C226: x6+x29 <=1 
C227: x6+x30-y6_30 <=1 
C228: x6+x31-y6_31 <=1 
C229: x6+x32-y6_32 <=1 
C230: x6+x34 <=1 
C231: x6+x36 <=1 
C232: x6+x37-y6_37 <=1 
C233: x6+x38 <=1 
C234: x6+x39 <=1 
C235: x6+x41 <=1 
C236: x6+x43 <=1 
C237: x6+x45 <=1 
C238: x6+x47 <=1 
C239: x6+x48 <=1 
C240: x6+x49-y6_49 <=1 
C241: x6+x50 <=1 
C242: x6+x51-y6_51 <=1 
C243: x6+x52 <=1 
C244: x6+x54-y6_54 <=1 
C245: x6+x55-y6_55 <=1 
C246: x6+x56 <=1 
C247: x6+x58 <=1 
C248: x6+x61-y6_61 <=1 
C249: x6+x62-y6_62 <=1 
C250: x7+x9 <=1 
C251: x7+x10 <=1 
C252: x7+x11 <=1 
C253: x7+x13 <=1 
C254: x7+x14-y7_14 <=1 
C255: x7+x16 <=1 
C256: x7+x19 <=1 
C257: x7+x21-y7_21 <=1 
C258: x7+x22-y7_22 <=1 
C259: x7+x23 <=1 
C260: x7+x24 <=1 
C261: x7+x27-y7_27 <=1 
C262: x7+x28 <=1 
C263: x7+x29 <=1 
C264: x7+x31-y7_31 <=1 
C265: x7+x32-y7_32 <=1 
C266: x7+x34-y7_34 <=1 
C267: x7+x37 <=1 
C268: x7+x38 <=1 
C269: x7+x40 <=1 
C270: x7+x41-y7_41 <=1 
C271: x7+x46 <=1 
C272: x7+x47-y7_47 <=1 
C273: x7+x48-y7_48 <=1 
C274: x7+x49-y7_49 <=1 
C275: x7+x50 <=1 
C276: x7+x51 <=1 
C277: x7+x53-y7_53 <=1 
C278: x7+x54-y7_54 <=1 
C279: x7+x55 <=1 
C280: x7+x57-y7_57 <=1 
C281: x7+x58-y7_58 <=1 
C282: x7+x60 <=1 
C283: x7+x62-y7_62 <=1 
C284: x8+x9 <=1 
C285: x8+x10 <=1 
C286: x8+x11 <=1 
C287: x8+x12 <=1 
C288: x8+x14 <=1 
C289: x8+x15 <=1 
C290: x8+x16-y8_16 <=1 
C291: x8+x17 <=1 
C292: x8+x18 <=1 
C293: x8+x19 <=1 
C294: x8+x21-y8_21 <=1 
C295: x8+x22-y8_22 <=1 
C296: x8+x23 <=1 
C297: x8+x24 <=1 
C298: x8+x25 <=1 
C299: x8+x26 <=1 
C300: x8+x29-y8_29 <=1 
C301: x8+x30-y8_30 <=1 
C302: x8+x31 <=1 
C303: x8+x32-y8_32 <=1 
C304: x8+x33-y8_33 <=1 
C305: x8+x35 <=1 
C306: x8+x37 <=1 
C307: x8+x39-y8_39 <=1 
C308: x8+x41-y8_41 <=1 
C309: x8+x43-y8_43 <=1 
C310: x8+x44-y8_44 <=1 
C311: x8+x46 <=1 
C312: x8+x48 <=1 
C313: x8+x49 <=1 
C314: x8+x50 <=1 
C315: x8+x53-y8_53 <=1 
C316: x8+x54 <=1 
C317: x8+x57-y8_57 <=1 
C318: x8+x59 <=1 
C319: x8+x61-y8_61 <=1 
C320: x8+x62 <=1 
C321: x9+x10-y9_10 <=1 
C322: x9+x14 <=1 
C323: x9+x17-y9_17 <=1 
C324: x9+x19-y9_19 <=1 
C325: x9+x20-y9_20 <=1 
C326: x9+x24 <=1 
C327: x9+x26-y9_26 <=1 
C328: x9+x27 <=1 
C329: x9+x30 <=1 
C330: x9+x31 <=1 
C331: x9+x33 <=1 
C332: x9+x35-y9_35 <=1 
C333: x9+x38-y9_38 <=1 
C334: x9+x39-y9_39 <=1 
C335: x9+x40 <=1 
C336: x9+x42 <=1 
C337: x9+x43-y9_43 <=1 
C338: x9+x44 <=1 
C339: x9+x45-y9_45 <=1 
C340: x9+x48-y9_48 <=1 
C341: x9+x49 <=1 
C342: x9+x52-y9_52 <=1 
C343: x9+x58-y9_58 <=1 
C344: x9+x60-y9_60 <=1 
C345: x9+x61 <=1 
C346: x9+x62-y9_62 <=1 
C347: x10+x11 <=1 
C348: x10+x12-y10_12 <=1 
C349: x10+x14-y10_14 <=1 
C350: x10+x16 <=1 
C351: x10+x17-y10_17 <=1 
C352: x10+x19-y10_19 <=1 
C353: x10+x20 <=1 
C354: x10+x21-y10_21 <=1 
C355: x10+x24-y10_24 <=1 
C356: x10+x29-y10_29 <=1 
C357: x10+x31-y10_31 <=1 
C358: x10+x34-y10_34 <=1 
C359: x10+x35 <=1 
C360: x10+x37 <=1 
C361: x10+x38 <=1 
C362: x10+x39-y10_39 <=1 
C363: x10+x40 <=1 
C364: x10+x43 <=1 
C365: x10+x44 <=1 
C366: x10+x45-y10_45 <=1 
C367: x10+x47-y10_47 <=1 
C368: x10+x48 <=1 
C369: x10+x49 <=1 
C370: x10+x50 <=1 
C371: x10+x51 <=1 
C372: x10+x53-y10_53 <=1 
C373: x10+x55-y10_55 <=1 
C374: x10+x56-y10_56 <=1 
C375: x10+x57 <=1 
C376: x10+x59 <=1 
C377: x10+x60 <=1 
C378: x10+x61-y10_61 <=1 
C379: x11+x15-y11_15 <=1 
C380: x11+x16 <=1 
C381: x11+x17 <=1 
C382: x11+x18 <=1 
C383: x11+x19 <=1 
C384: x11+x20 <=1 
C385: x11+x24-y11_24 <=1 
C386: x11+x26 <=1 
C387: x11+x31 <=1 
C388: x11+x32 <=1 
C389: x11+x33 <=1 
C390: x11+x34-y11_34 <=1 
C391: x11+x35 <=1 
C392: x11+x36 <=1 
C393: x11+x38-y11_38 <=1 
C394: x11+x41-y11_41 <=1 
C395: x11+x42 <=1 
C396: x11+x43-y11_43 <=1 
C397: x11+x44-y11_44 <=1 
C398: x11+x45-y11_45 <=1 
C399: x11+x46-y11_46 <=1 
C400: x11+x47 <=1 
C401: x11+x48 <=1 
C402: x11+x49 <=1 
C403: x11+x50 <=1 
C404: x11+x52-y11_52 <=1 
C405: x11+x53-y11_53 <=1 
C406: x11+x54-y11_54 <=1 
C407: x11+x56 <=1 
C408: x11+x57 <=1 
C409: x11+x58 <=1 
C410: x11+x60 <=1 
C411: x12+x13-y12_13 <=1 
C412: x12+x14-y12_14 <=1 
C413: x12+x15-y12_15 <=1 
C414: x12+x16-y12_16 <=1 
C415: x12+x17-y12_17 <=1 
C416: x12+x18 <=1 
C417: x12+x20 <=1 
C418: x12+x22-y12_22 <=1 
C419: x12+x24-y12_24 <=1 
C420: x12+x25-y12_25 <=1 
C421: x12+x26 <=1 
C422: x12+x28 <=1 
C423: x12+x29 <=1 
C424: x12+x32 <=1 
C425: x12+x33 <=1 
C426: x12+x36 <=1 
C427: x12+x40 <=1 
C428: x12+x41 <=1 
C429: x12+x42 <=1 
C430: x12+x43 <=1 
C431: x12+x44-y12_44 <=1 
C432: x12+x45 <=1 
C433: x12+x46 <=1 
C434: x12+x47-y12_47 <=1 
C435: x12+x49 <=1 
C436: x12+x51-y12_51 <=1 
C437: x12+x53 <=1 
C438: x12+x54 <=1 
C439: x12+x58-y12_58 <=1 
C440: x12+x59 <=1 
C441: x12+x60-y12_60 <=1 
C442: x13+x14-y13_14 <=1 
C443: x13+x16 <=1 
C444: x13+x17-y13_17 <=1 
C445: x13+x20 <=1 
C446: x13+x21-y13_21 <=1 
C447: x13+x22-y13_22 <=1 
C448: x13+x23 <=1 
C449: x13+x27-y13_27 <=1 
C450: x13+x28-y13_28 <=1 
C451: x13+x29-y13_29 <=1 
C452: x13+x30-y13_30 <=1 
C453: x13+x31 <=1 
C454: x13+x33-y13_33 <=1 
C455: x13+x35 <=1 
C456: x13+x36-y13_36 <=1 
C457: x13+x37-y13_37 <=1 
C458: x13+x40 <=1 
C459: x13+x41-y13_41 <=1 
C460: x13+x44-y13_44 <=1 
C461: x13+x45 <=1 
C462: x13+x48 <=1 
C463: x13+x50 <=1 
C464: x13+x51-y13_51 <=1 
C465: x13+x53 <=1 
C466: x13+x54 <=1 
C467: x13+x55 <=1 
C468: x13+x58 <=1 
C469: x13+x59 <=1 
C470: x13+x60 <=1 
C471: x13+x61 <=1 
C472: x13+x62 <=1 
C473: x14+x15 <=1 
C474: x14+x17-y14_17 <=1 
C475: x14+x19 <=1 
C476: x14+x20-y14_20 <=1 
C477: x14+x21 <=1 
C478: x14+x22 <=1 
C479: x14+x23-y14_23 <=1 
C480: x14+x26 <=1 
C481: x14+x29 <=1 
C482: x14+x30 <=1 
C483: x14+x31-y14_31 <=1 
C484: x14+x32-y14_32 <=1 
C485: x14+x33-y14_33 <=1 
C486: x14+x34-y14_34 <=1 
C487: x14+x36 <=1 
C488: x14+x37 <=1 
C489: x14+x39 <=1 
C490: x14+x43-y14_43 <=1 
C491: x14+x44-y14_44 <=1 
C492: x14+x46-y14_46 <=1 
C493: x14+x47 <=1 
C494: x14+x48-y14_48 <=1 
C495: x14+x49-y14_49 <=1 
C496: x14+x50 <=1 
C497: x14+x51-y14_51 <=1 
C498: x14+x52-y14_52 <=1 
C499: x14+x53-y14_53 <=1 
C500: x14+x54-y14_54 <=1 
C501: x14+x55 <=1 
C502: x14+x58-y14_58 <=1 
C503: x14+x61-y14_61 <=1 
C504: x14+x62 <=1 
C505: x15+x16-y15_16 <=1 
C506: x15+x18 <=1 
C507: x15+x19 <=1 
C508: x15+x21 <=1 
C509: x15+x25 <=1 
C510: x15+x27 <=1 
C511: x15+x32 <=1 
C512: x15+x33-y15_33 <=1 
C513: x15+x34-y15_34 <=1 
C514: x15+x35 <=1 
C515: x15+x40-y15_40 <=1 
C516: x15+x41-y15_41 <=1 
C517: x15+x42-y15_42 <=1 
C518: x15+x44 <=1 
C519: x15+x45 <=1 
C520: x15+x49 <=1 
C521: x15+x50-y15_50 <=1 
C522: x15+x51 <=1 
C523: x15+x52-y15_52 <=1 
C524: x15+x54-y15_54 <=1 
C525: x15+x57-y15_57 <=1 
C526: x15+x59 <=1 
C527: x15+x60 <=1 
C528: x15+x61-y15_61 <=1 
C529: x15+x62 <=1 
C530: x16+x18 <=1 
C531: x16+x21 <=1 
C532: x16+x22-y16_22 <=1 
C533: x16+x23 <=1 
C534: x16+x25 <=1 
C535: x16+x26-y16_26 <=1 
C536: x16+x27-y16_27 <=1 
C537: x16+x29 <=1 
C538: x16+x32-y16_32 <=1 
C539: x16+x33-y16_33 <=1 
C540: x16+x34-y16_34 <=1 
C541: x16+x35-y16_35 <=1 
C542: x16+x36-y16_36 <=1 
C543: x16+x37 <=1 
C544: x16+x38 <=1 
C545: x16+x39-y16_39 <=1 
C546: x16+x41 <=1 
C547: x16+x43 <=1 
C548: x16+x44-y16_44 <=1 
C549: x16+x46 <=1 
C550: x16+x47-y16_47 <=1 
C551: x16+x49-y16_49 <=1 
C552: x16+x50-y16_50 <=1 
C553: x16+x51-y16_51 <=1 
C554: x16+x53 <=1 
C555: x16+x54 <=1 
C556: x16+x55 <=1 
C557: x16+x56 <=1 
C558: x16+x58-y16_58 <=1 
C559: x16+x59-y16_59 <=1 
C560: x16+x61 <=1 
C561: x16+x62 <=1 
C562: x17+x18 <=1 
C563: x17+x19 <=1 
C564: x17+x20 <=1 
C565: x17+x23 <=1 
C566: x17+x24-y17_24 <=1 
C567: x17+x25 <=1 
C568: x17+x27-y17_27 <=1 
C569: x17+x28-y17_28 <=1 
C570: x17+x30-y17_30 <=1 
C571: x17+x31-y17_31 <=1 
C572: x17+x32 <=1 
C573: x17+x33-y17_33 <=1 
C574: x17+x34-y17_34 <=1 
C575: x17+x35-y17_35 <=1 
C576: x17+x36-y17_36 <=1 
C577: x17+x37-y17_37 <=1 
C578: x17+x40-y17_40 <=1 
C579: x17+x41 <=1 
C580: x17+x42-y17_42 <=1 
C581: x17+x44 <=1 
C582: x17+x45-y17_45 <=1 
C583: x17+x46 <=1 
C584: x17+x49-y17_49 <=1 
C585: x17+x50-y17_50 <=1 
C586: x17+x51-y17_51 <=1 
C587: x17+x53 <=1 
C588: x17+x54 <=1 
C589: x17+x56 <=1 
C590: x17+x57-y17_57 <=1 
C591: x17+x58 <=1 
C592: x17+x60-y17_60 <=1 
C593: x17+x61 <=1 
C594: x17+x62 <=1 
C595: x18+x19 <=1 
C596: x18+x22 <=1 
C597: x18+x25 <=1 
C598: x18+x27 <=1 
C599: x18+x28 <=1 
C600: x18+x29-y18_29 <=1 
C601: x18+x31-y18_31 <=1 
C602: x18+x32 <=1 
C603: x18+x33 <=1 
C604: x18+x35-y18_35 <=1 
C605: x18+x37 <=1 
C606: x18+x39-y18_39 <=1 
C607: x18+x40-y18_40 <=1 
C608: x18+x41 <=1 
C609: x18+x42-y18_42 <=1 
C610: x18+x44 <=1 
C611: x18+x47-y18_47 <=1 
C612: x18+x52-y18_52 <=1 
C613: x18+x53 <=1 
C614: x18+x54-y18_54 <=1 
C615: x18+x55 <=1 
C616: x18+x56 <=1 
C617: x18+x57 <=1 
C618: x18+x60-y18_60 <=1 
C619: x18+x61 <=1 
C620: x19+x21 <=1 
C621: x19+x24 <=1 
C622: x19+x31-y19_31 <=1 
C623: x19+x32 <=1 
C624: x19+x33-y19_33 <=1 
C625: x19+x35 <=1 
C626: x19+x36-y19_36 <=1 
C627: x19+x37-y19_37 <=1 
C628: x19+x38-y19_38 <=1 
C629: x19+x40-y19_40 <=1 
C630: x19+x41 <=1 
C631: x19+x42 <=1 
C632: x19+x43 <=1 
C633: x19+x44 <=1 
C634: x19+x45 <=1 
C635: x19+x46-y19_46 <=1 
C636: x19+x48 <=1 
C637: x19+x51-y19_51 <=1 
C638: x19+x52-y19_52 <=1 
C639: x19+x53 <=1 
C640: x19+x55 <=1 
C641: x19+x56 <=1 
C642: x19+x57 <=1 
C643: x19+x58-y19_58 <=1 
C644: x19+x59 <=1 
C645: x19+x60 <=1 
C646: x19+x61-y19_61 <=1 
C647: x19+x62 <=1 
C648: x20+x22-y20_22 <=1 
C649: x20+x23-y20_23 <=1 
C650: x20+x24-y20_24 <=1 
C651: x20+x26-y20_26 <=1 
C652: x20+x27 <=1 
C653: x20+x28-y20_28 <=1 
C654: x20+x29-y20_29 <=1 
C655: x20+x30-y20_30 <=1 
C656: x20+x31 <=1 
C657: x20+x32 <=1 
C658: x20+x33-y20_33 <=1 
C659: x20+x34 <=1 
C660: x20+x36-y20_36 <=1 
C661: x20+x37 <=1 
C662: x20+x38-y20_38 <=1 
C663: x20+x39-y20_39 <=1 
C664: x20+x40 <=1 
C665: x20+x43-y20_43 <=1 
C666: x20+x46-y20_46 <=1 
C667: x20+x47-y20_47 <=1 
C668: x20+x50 <=1 
C669: x20+x52-y20_52 <=1 
C670: x20+x55 <=1 
C671: x20+x56 <=1 
C672: x20+x57 <=1 
C673: x20+x58 <=1 
C674: x20+x60-y20_60 <=1 
C675: x20+x62-y20_62 <=1 
C676: x21+x23 <=1 
C677: x21+x24 <=1 
C678: x21+x25 <=1 
C679: x21+x26-y21_26 <=1 
C680: x21+x28 <=1 
C681: x21+x30-y21_30 <=1 
C682: x21+x31 <=1 
C683: x21+x33 <=1 
C684: x21+x34 <=1 
C685: x21+x35-y21_35 <=1 
C686: x21+x36 <=1 
C687: x21+x37 <=1 
C688: x21+x40-y21_40 <=1 
C689: x21+x41 <=1 
C690: x21+x43 <=1 
C691: x21+x47 <=1 
C692: x21+x48-y21_48 <=1 
C693: x21+x53 <=1 
C694: x21+x54 <=1 
C695: x21+x55 <=1 
C696: x21+x59-y21_59 <=1 
C697: x21+x60-y21_60 <=1 
C698: x21+x61 <=1 
C699: x21+x62-y21_62 <=1 
C700: x22+x25 <=1 
C701: x22+x27-y22_27 <=1 
C702: x22+x28-y22_28 <=1 
C703: x22+x29 <=1 
C704: x22+x30-y22_30 <=1 
C705: x22+x31-y22_31 <=1 
C706: x22+x32 <=1 
C707: x22+x33-y22_33 <=1 
C708: x22+x34-y22_34 <=1 
C709: x22+x35-y22_35 <=1 
C710: x22+x37 <=1 
C711: x22+x38-y22_38 <=1 
C712: x22+x39 <=1 
C713: x22+x44-y22_44 <=1 
C714: x22+x46 <=1 
C715: x22+x47 <=1 
C716: x22+x48-y22_48 <=1 
C717: x22+x49 <=1 
C718: x22+x50 <=1 
C719: x22+x51-y22_51 <=1 
C720: x22+x52-y22_52 <=1 
C721: x22+x57 <=1 
C722: x22+x59 <=1 
C723: x22+x61-y22_61 <=1 
C724: x22+x62 <=1 
C725: x23+x24 <=1 
C726: x23+x25-y23_25 <=1 
C727: x23+x28-y23_28 <=1 
C728: x23+x30-y23_30 <=1 
C729: x23+x32-y23_32 <=1 
C730: x23+x33-y23_33 <=1 
C731: x23+x34 <=1 
C732: x23+x35-y23_35 <=1 
C733: x23+x36 <=1 
C734: x23+x37 <=1 
C735: x23+x38 <=1 
C736: x23+x39-y23_39 <=1 
C737: x23+x40 <=1 
C738: x23+x41 <=1 
C739: x23+x42-y23_42 <=1 
C740: x23+x48-y23_48 <=1 
C741: x23+x49-y23_49 <=1 
C742: x23+x50-y23_50 <=1 
C743: x23+x52-y23_52 <=1 
C744: x23+x53 <=1 
C745: x23+x55 <=1 
C746: x23+x57 <=1 
C747: x23+x59 <=1 
C748: x23+x61 <=1 
C749: x23+x62-y23_62 <=1 
C750: x24+x28 <=1 
C751: x24+x31-y24_31 <=1 
C752: x24+x32 <=1 
C753: x24+x33 <=1 
C754: x24+x34-y24_34 <=1 
C755: x24+x36-y24_36 <=1 
C756: x24+x37 <=1 
C757: x24+x38 <=1 
C758: x24+x40-y24_40 <=1 
C759: x24+x43-y24_43 <=1 
C760: x24+x47 <=1 
C761: x24+x48-y24_48 <=1 
C762: x24+x49-y24_49 <=1 
C763: x24+x52-y24_52 <=1 
C764: x24+x54 <=1 
C765: x24+x55 <=1 
C766: x24+x59 <=1 
C767: x24+x61-y24_61 <=1 
C768: x25+x26 <=1 
C769: x25+x27-y25_27 <=1 
C770: x25+x28 <=1 
C771: x25+x29-y25_29 <=1 
C772: x25+x32-y25_32 <=1 
C773: x25+x33 <=1 
C774: x25+x34-y25_34 <=1 
C775: x25+x35-y25_35 <=1 
C776: x25+x40 <=1 
C777: x25+x41-y25_41 <=1 
C778: x25+x43 <=1 
C779: x25+x44-y25_44 <=1 
C780: x25+x45-y25_45 <=1 
C781: x25+x46 <=1 
C782: x25+x47-y25_47 <=1 
C783: x25+x48 <=1 
C784: x25+x50 <=1 
C785: x25+x52 <=1 
C786: x25+x56 <=1 
C787: x25+x57-y25_57 <=1 
C788: x25+x58 <=1 
C789: x25+x59-y25_59 <=1 
C790: x25+x60 <=1 
C791: x25+x61-y25_61 <=1 
C792: x25+x62 <=1 
C793: x26+x27-y26_27 <=1 
C794: x26+x28-y26_28 <=1 
C795: x26+x29 <=1 
C796: x26+x30-y26_30 <=1 
C797: x26+x31-y26_31 <=1 
C798: x26+x32-y26_32 <=1 
C799: x26+x34 <=1 
C800: x26+x38 <=1 
C801: x26+x39-y26_39 <=1 
C802: x26+x41 <=1 
C803: x26+x42-y26_42 <=1 
C804: x26+x45-y26_45 <=1 
C805: x26+x46 <=1 
C806: x26+x49-y26_49 <=1 
C807: x26+x51-y26_51 <=1 
C808: x26+x52-y26_52 <=1 
C809: x26+x53-y26_53 <=1 
C810: x26+x54 <=1 
C811: x26+x57-y26_57 <=1 
C812: x26+x58-y26_58 <=1 
C813: x26+x60 <=1 
C814: x26+x62 <=1 
C815: x27+x28-y27_28 <=1 
C816: x27+x29 <=1 
C817: x27+x30 <=1 
C818: x27+x31-y27_31 <=1 
C819: x27+x32-y27_32 <=1 
C820: x27+x33 <=1 
C821: x27+x34 <=1 
C822: x27+x35 <=1 
C823: x27+x36-y27_36 <=1 
C824: x27+x39-y27_39 <=1 
C825: x27+x40 <=1 
C826: x27+x41 <=1 
C827: x27+x42 <=1 
C828: x27+x47-y27_47 <=1 
C829: x27+x48 <=1 
C830: x27+x49 <=1 
C831: x27+x50-y27_50 <=1 
C832: x27+x51 <=1 
C833: x27+x52 <=1 
C834: x27+x54-y27_54 <=1 
C835: x27+x56 <=1 
C836: x27+x57-y27_57 <=1 
C837: x27+x58 <=1 
C838: x27+x59-y27_59 <=1 
C839: x27+x61-y27_61 <=1 
C840: x27+x62-y27_62 <=1 
C841: x28+x29 <=1 
C842: x28+x32 <=1 
C843: x28+x34 <=1 
C844: x28+x35 <=1 
C845: x28+x36 <=1 
C846: x28+x37-y28_37 <=1 
C847: x28+x40-y28_40 <=1 
C848: x28+x43 <=1 
C849: x28+x44 <=1 
C850: x28+x46-y28_46 <=1 
C851: x28+x47-y28_47 <=1 
C852: x28+x50-y28_50 <=1 
C853: x28+x51 <=1 
C854: x28+x52-y28_52 <=1 
C855: x28+x53-y28_53 <=1 
C856: x28+x56-y28_56 <=1 
C857: x28+x57 <=1 
C858: x28+x62 <=1 
C859: x29+x30 <=1 
C860: x29+x31 <=1 
C861: x29+x33 <=1 
C862: x29+x34-y29_34 <=1 
C863: x29+x35-y29_35 <=1 
C864: x29+x36-y29_36 <=1 
C865: x29+x37 <=1 
C866: x29+x38 <=1 
C867: x29+x43 <=1 
C868: x29+x44-y29_44 <=1 
C869: x29+x45 <=1 
C870: x29+x46-y29_46 <=1 
C871: x29+x47 <=1 
C872: x29+x49-y29_49 <=1 
C873: x29+x50 <=1 
C874: x29+x53-y29_53 <=1 
C875: x29+x55-y29_55 <=1 
C876: x29+x56-y29_56 <=1 
C877: x29+x57 <=1 
C878: x29+x58 <=1 
C879: x29+x59-y29_59 <=1 
C880: x29+x60 <=1 
C881: x29+x62-y29_62 <=1 
C882: x30+x31 <=1 
C883: x30+x32 <=1 
C884: x30+x33-y30_33 <=1 
C885: x30+x34-y30_34 <=1 
C886: x30+x36 <=1 
C887: x30+x38-y30_38 <=1 
C888: x30+x41-y30_41 <=1 
C889: x30+x42 <=1 
C890: x30+x43 <=1 
C891: x30+x45 <=1 
C892: x30+x46 <=1 
C893: x30+x48-y30_48 <=1 
C894: x30+x50-y30_50 <=1 
C895: x30+x51-y30_51 <=1 
C896: x30+x52-y30_52 <=1 
C897: x30+x54-y30_54 <=1 
C898: x30+x55 <=1 
C899: x30+x56 <=1 
C900: x30+x57-y30_57 <=1 
C901: x30+x58-y30_58 <=1 
C902: x30+x59-y30_59 <=1 
C903: x30+x62-y30_62 <=1 
C904: x31+x32-y31_32 <=1 
C905: x31+x33 <=1 
C906: x31+x34 <=1 
C907: x31+x39 <=1 
C908: x31+x40-y31_40 <=1 
C909: x31+x41-y31_41 <=1 
C910: x31+x42 <=1 
C911: x31+x44 <=1 
C912: x31+x45-y31_45 <=1 
C913: x31+x46-y31_46 <=1 
C914: x31+x47 <=1 
C915: x31+x48-y31_48 <=1 
C916: x31+x49 <=1 
C917: x31+x50-y31_50 <=1 
C918: x31+x51 <=1 
C919: x31+x52 <=1 
C920: x31+x55-y31_55 <=1 
C921: x31+x58-y31_58 <=1 
C922: x31+x60 <=1 
C923: x31+x62-y31_62 <=1 
C924: x32+x34 <=1 
C925: x32+x36 <=1 
C926: x32+x38 <=1 
C927: x32+x39 <=1 
C928: x32+x40-y32_40 <=1 
C929: x32+x42-y32_42 <=1 
C930: x32+x44 <=1 
C931: x32+x48-y32_48 <=1 
C932: x32+x49 <=1 
C933: x32+x50 <=1 
C934: x32+x51 <=1 
C935: x32+x54-y32_54 <=1 
C936: x32+x56 <=1 
C937: x32+x57-y32_57 <=1 
C938: x32+x60 <=1 
C939: x32+x61 <=1 
C940: x32+x62-y32_62 <=1 
C941: x33+x35-y33_35 <=1 
C942: x33+x38-y33_38 <=1 
C943: x33+x39-y33_39 <=1 
C944: x33+x40-y33_40 <=1 
C945: x33+x41-y33_41 <=1 
C946: x33+x46-y33_46 <=1 
C947: x33+x49-y33_49 <=1 
C948: x33+x50-y33_50 <=1 
C949: x33+x51-y33_51 <=1 
C950: x33+x52 <=1 
C951: x33+x53-y33_53 <=1 
C952: x33+x54 <=1 
C953: x33+x55-y33_55 <=1 
C954: x33+x56-y33_56 <=1 
C955: x33+x58 <=1 
C956: x33+x59-y33_59 <=1 
C957: x33+x60-y33_60 <=1 
C958: x33+x61 <=1 
C959: x33+x62 <=1 
C960: x34+x37-y34_37 <=1 
C961: x34+x38 <=1 
C962: x34+x40-y34_40 <=1 
C963: x34+x41 <=1 
C964: x34+x42-y34_42 <=1 
C965: x34+x43-y34_43 <=1 
C966: x34+x45-y34_45 <=1 
C967: x34+x49-y34_49 <=1 
C968: x34+x50-y34_50 <=1 
C969: x34+x51-y34_51 <=1 
C970: x34+x54-y34_54 <=1 
C971: x34+x58 <=1 
C972: x35+x36 <=1 
C973: x35+x37 <=1 
C974: x35+x39-y35_39 <=1 
C975: x35+x40 <=1 
C976: x35+x41-y35_41 <=1 
C977: x35+x43-y35_43 <=1 
C978: x35+x44-y35_44 <=1 
C979: x35+x45 <=1 
C980: x35+x46-y35_46 <=1 
C981: x35+x47 <=1 
C982: x35+x48 <=1 
C983: x35+x51-y35_51 <=1 
C984: x35+x53-y35_53 <=1 
C985: x35+x54-y35_54 <=1 
C986: x35+x55-y35_55 <=1 
C987: x35+x57-y35_57 <=1 
C988: x35+x58 <=1 
C989: x35+x60-y35_60 <=1 
C990: x35+x61 <=1 
C991: x36+x37 <=1 
C992: x36+x41 <=1 
C993: x36+x42 <=1 
C994: x36+x43-y36_43 <=1 
C995: x36+x44-y36_44 <=1 
C996: x36+x45 <=1 
C997: x36+x50-y36_50 <=1 
C998: x36+x51-y36_51 <=1 
C999: x36+x54 <=1 
C1000: x36+x56 <=1 
C1001: x36+x57 <=1 
C1002: x36+x61-y36_61 <=1 
C1003: x36+x62 <=1 
C1004: x37+x38 <=1 
C1005: x37+x41 <=1 
C1006: x37+x43 <=1 
C1007: x37+x44-y37_44 <=1 
C1008: x37+x45 <=1 
C1009: x37+x46-y37_46 <=1 
C1010: x37+x47 <=1 
C1011: x37+x48-y37_48 <=1 
C1012: x37+x49-y37_49 <=1 
C1013: x37+x50-y37_50 <=1 
C1014: x37+x51 <=1 
C1015: x37+x53 <=1 
C1016: x37+x54-y37_54 <=1 
C1017: x37+x55 <=1 
C1018: x37+x56-y37_56 <=1 
C1019: x37+x60 <=1 
C1020: x37+x61 <=1 
C1021: x38+x39 <=1 
C1022: x38+x40-y38_40 <=1 
C1023: x38+x45-y38_45 <=1 
C1024: x38+x46 <=1 
C1025: x38+x47-y38_47 <=1 
C1026: x38+x50 <=1 
C1027: x38+x51-y38_51 <=1 
C1028: x38+x54 <=1 
C1029: x38+x59-y38_59 <=1 
C1030: x38+x60 <=1 
C1031: x38+x61 <=1 
C1032: x39+x42-y39_42 <=1 
C1033: x39+x44-y39_44 <=1 
C1034: x39+x46 <=1 
C1035: x39+x48-y39_48 <=1 
C1036: x39+x49-y39_49 <=1 
C1037: x39+x50-y39_50 <=1 
C1038: x39+x51-y39_51 <=1 
C1039: x39+x52-y39_52 <=1 
C1040: x39+x54-y39_54 <=1 
C1041: x39+x55 <=1 
C1042: x39+x56 <=1 
C1043: x39+x57-y39_57 <=1 
C1044: x39+x58 <=1 
C1045: x39+x61-y39_61 <=1 
C1046: x40+x43 <=1 
C1047: x40+x45 <=1 
C1048: x40+x46-y40_46 <=1 
C1049: x40+x48 <=1 
C1050: x40+x50 <=1 
C1051: x40+x52-y40_52 <=1 
C1052: x40+x53-y40_53 <=1 
C1053: x40+x55-y40_55 <=1 
C1054: x40+x57 <=1 
C1055: x40+x58 <=1 
C1056: x40+x59 <=1 
C1057: x40+x61-y40_61 <=1 
C1058: x40+x62-y40_62 <=1 
C1059: x41+x43 <=1 
C1060: x41+x44 <=1 
C1061: x41+x45 <=1 
C1062: x41+x49-y41_49 <=1 
C1063: x41+x50-y41_50 <=1 
C1064: x41+x51-y41_51 <=1 
C1065: x41+x52-y41_52 <=1 
C1066: x41+x53-y41_53 <=1 
C1067: x41+x54-y41_54 <=1 
C1068: x41+x55-y41_55 <=1 
C1069: x41+x56 <=1 
C1070: x41+x57-y41_57 <=1 
C1071: x41+x61 <=1 
C1072: x41+x62 <=1 
C1073: x42+x43-y42_43 <=1 
C1074: x42+x45 <=1 
C1075: x42+x46-y42_46 <=1 
C1076: x42+x47-y42_47 <=1 
C1077: x42+x51-y42_51 <=1 
C1078: x42+x52-y42_52 <=1 
C1079: x42+x53-y42_53 <=1 
C1080: x42+x55 <=1 
C1081: x42+x58 <=1 
C1082: x42+x62-y42_62 <=1 
C1083: x43+x45 <=1 
C1084: x43+x47-y43_47 <=1 
C1085: x43+x48 <=1 
C1086: x43+x50 <=1 
C1087: x43+x53-y43_53 <=1 
C1088: x43+x54 <=1 
C1089: x43+x55 <=1 
C1090: x43+x56-y43_56 <=1 
C1091: x43+x57-y43_57 <=1 
C1092: x43+x59-y43_59 <=1 
C1093: x43+x61 <=1 
C1094: x43+x62 <=1 
C1095: x44+x45-y44_45 <=1 
C1096: x44+x46-y44_46 <=1 
C1097: x44+x49 <=1 
C1098: x44+x50 <=1 
C1099: x44+x51-y44_51 <=1 
C1100: x44+x52-y44_52 <=1 
C1101: x44+x54-y44_54 <=1 
C1102: x44+x56-y44_56 <=1 
C1103: x44+x58-y44_58 <=1 
C1104: x44+x59 <=1 
C1105: x44+x60 <=1 
C1106: x44+x61 <=1 
C1107: x44+x62-y44_62 <=1 
C1108: x45+x51 <=1 
C1109: x45+x52 <=1 
C1110: x45+x53 <=1 
C1111: x45+x54 <=1 
C1112: x45+x55 <=1 
C1113: x45+x58 <=1 
C1114: x45+x59-y45_59 <=1 
C1115: x45+x61-y45_61 <=1 
C1116: x45+x62 <=1 
C1117: x46+x48 <=1 
C1118: x46+x49-y46_49 <=1 
C1119: x46+x50 <=1 
C1120: x46+x53 <=1 
C1121: x46+x56 <=1 
C1122: x46+x57-y46_57 <=1 
C1123: x46+x59 <=1 
C1124: x46+x60-y46_60 <=1 
C1125: x46+x62-y46_62 <=1 
C1126: x47+x48-y47_48 <=1 
C1127: x47+x51-y47_51 <=1 
C1128: x47+x52 <=1 
C1129: x47+x53-y47_53 <=1 
C1130: x47+x55 <=1 
C1131: x47+x58-y47_58 <=1 
C1132: x48+x50 <=1 
C1133: x48+x51 <=1 
C1134: x48+x52 <=1 
C1135: x48+x55-y48_55 <=1 
C1136: x48+x56-y48_56 <=1 
C1137: x48+x58 <=1 
C1138: x48+x60-y48_60 <=1 
C1139: x48+x61 <=1 
C1140: x49+x50 <=1 
C1141: x49+x52-y49_52 <=1 
C1142: x49+x53-y49_53 <=1 
C1143: x49+x54-y49_54 <=1 
C1144: x49+x56-y49_56 <=1 
C1145: x49+x57 <=1 
C1146: x49+x58-y49_58 <=1 
C1147: x49+x59 <=1 
C1148: x49+x60 <=1 
C1149: x49+x62 <=1 
C1150: x50+x51-y50_51 <=1 
C1151: x50+x58-y50_58 <=1 
C1152: x50+x59-y50_59 <=1 
C1153: x50+x60 <=1 
C1154: x51+x54-y51_54 <=1 
C1155: x51+x55 <=1 
C1156: x51+x59 <=1 
C1157: x51+x60 <=1 
C1158: x51+x62 <=1 
C1159: x52+x53-y52_53 <=1 
C1160: x52+x55-y52_55 <=1 
C1161: x52+x57 <=1 
C1162: x52+x58 <=1 
C1163: x52+x60 <=1 
C1164: x53+x54-y53_54 <=1 
C1165: x53+x55 <=1 
C1166: x53+x56-y53_56 <=1 
C1167: x53+x58-y53_58 <=1 
C1168: x53+x59 <=1 
C1169: x53+x60 <=1 
C1170: x53+x61 <=1 
C1171: x53+x62 <=1 
C1172: x54+x55-y54_55 <=1 
C1173: x54+x57-y54_57 <=1 
C1174: x54+x58-y54_58 <=1 
C1175: x54+x61-y54_61 <=1 
C1176: x55+x57-y55_57 <=1 
C1177: x55+x58-y55_58 <=1 
C1178: x55+x60-y55_60 <=1 
C1179: x55+x61 <=1 
C1180: x55+x62 <=1 
C1181: x56+x57 <=1 
C1182: x56+x59-y56_59 <=1 
C1183: x56+x60-y56_60 <=1 
C1184: x56+x61-y56_61 <=1 
C1185: x56+x62 <=1 
C1186: x57+x59 <=1 
C1187: x57+x60-y57_60 <=1 
C1188: x58+x59 <=1 
C1189: x58+x61 <=1 
C1190: x59+x60 <=1 
C1191: x60+x62 <=1 
C1192: x61+x62-y61_62 <=1 

binary
x0
x1
x2
x3
x4
x5
x6
x7
x8
x9
x10
x11
x12
x13
x14
x15
x16
x17
x18
x19
x20
x21
x22
x23
x24
x25
x26
x27
x28
x29
x30
x31
x32
x33
x34
x35
x36
x37
x38
x39
x40
x41
x42
x43
x44
x45
x46
x47
x48
x49
x50
x51
x52
x53
x54
x55
x56
x57
x58
x59
x60
x61
x62
