problem_generation/data/GISP/train/er_n=63_m=1192_p=0.60_SET2_setparam=100.00_alpha=0.50_892.sol
objective value:                                 1174
x1                                                  1 	(obj:100)
x3                                                  1 	(obj:100)
x22                                                 1 	(obj:100)
x24                                                 1 	(obj:100)
x26                                                 1 	(obj:100)
x35                                                 1 	(obj:100)
x42                                                 1 	(obj:100)
x44                                                 1 	(obj:100)
x51                                                 1 	(obj:100)
x52                                                 1 	(obj:100)
x53                                                 1 	(obj:100)
x56                                                 1 	(obj:100)
y44_56                                              1 	(obj:-1)
y44_51                                              1 	(obj:-1)
y1_52                                               1 	(obj:-1)
y42_53                                              1 	(obj:-1)
y35_44                                              1 	(obj:-1)
y26_53                                              1 	(obj:-1)
y42_52                                              1 	(obj:-1)
y26_52                                              1 	(obj:-1)
y53_56                                              1 	(obj:-1)
y26_42                                              1 	(obj:-1)
y26_51                                              1 	(obj:-1)
y3_22                                               1 	(obj:-1)
y22_35                                              1 	(obj:-1)
y22_44                                              1 	(obj:-1)
y35_53                                              1 	(obj:-1)
y24_52                                              1 	(obj:-1)
y42_51                                              1 	(obj:-1)
y35_51                                              1 	(obj:-1)
y1_26                                               1 	(obj:-1)
y1_44                                               1 	(obj:-1)
y52_53                                              1 	(obj:-1)
y22_52                                              1 	(obj:-1)
y3_52                                               1 	(obj:-1)
y44_52                                              1 	(obj:-1)
y22_51                                              1 	(obj:-1)
y3_56                                               1 	(obj:-1)
